# Solution for model PD-Stages
# Objective value = 3.5757195825595616e+01
zigjg[101,102,10] 1
zigjg[101,203,10] 0
zigjg[101,303,10] 0
zigjg[102,101,10] 0
zigjg[102,203,10] 0
zigjg[102,303,10] 1
zigjg[203,101,10] 1
zigjg[203,102,10] 0
zigjg[203,303,10] 0
zigjg[303,101,10] 0
zigjg[303,102,10] 0
zigjg[303,203,10] 1
sig[101,10] 0
sig[102,10] 1
sig[203,10] 3
sig[303,10] 2
digjg[101,102,10] 0
digjg[101,203,10] 10000
digjg[101,303,10] 10000
digjg[102,101,10] 10000
digjg[102,203,10] 10000
digjg[102,303,10] 0
digjg[203,101,10] 0
digjg[203,102,10] 10000
digjg[203,303,10] 10000
digjg[303,101,10] 10000
digjg[303,102,10] 10000
digjg[303,203,10] 0
difigjg[101,102,10,0] 0
difigjg[101,102,10,1] 0
difigjg[101,203,10,0] 1.0049882021717890e+01
difigjg[101,203,10,1] 9.61721032260333
difigjg[101,303,10,0] 3.0898842764164227e+00
difigjg[101,303,10,1] 7.4395869576669824e+00
difigjg[102,101,10,0] 4.0185480365143222e+00
difigjg[102,101,10,1] 1.0245476458670911e+01
difigjg[102,203,10,0] 6.9599977453025286e+00
difigjg[102,203,10,1] 2.1776233649343339e+00
difigjg[102,303,10,0] 0
difigjg[102,303,10,1] 0
difigjg[203,101,10,0] 0
difigjg[203,101,10,1] 0
difigjg[203,102,10,0] 7.1084323129301961e+00
difigjg[203,102,10,1] 2.8058895010035485e+00
difigjg[203,303,10,0] 4.0185480365141970e+00
difigjg[203,303,10,1] 1.0245476458670964e+01
difigjg[303,101,10,0] 2.9414497087873315e+00
difigjg[303,101,10,1] 1.2423099823606268e+01
difigjg[303,102,10,0] 1.0049882021718531e+01
difigjg[303,102,10,1] 9.6172103226023324e+00
difigjg[303,203,10,0] 0
difigjg[303,203,10,1] 0
pigjg[101,102,10] 0
pigjg[101,203,10] 0
pigjg[101,303,10] 0
pigjg[102,101,10] 0
pigjg[102,203,10] 0
pigjg[102,303,10] 0
pigjg[203,101,10] 0
pigjg[203,102,10] 0
pigjg[203,303,10] 0
pigjg[303,101,10] 0
pigjg[303,102,10] 0
pigjg[303,203,10] 0
Rig[101,10,0] 5.6721116867967112e+01
Rig[101,10,1] 48.4189907374592
Rig[102,10,0] 4.9612684555037518e+01
Rig[102,10,1] 5.1224880238463136e+01
Rig[203,10,0] 5.9662566576756021e+01
Rig[203,10,1] 6.0842090561065469e+01
Rig[303,10,0] 5.2702568831453505e+01
Rig[303,10,1] 5.8664467196130111e+01
rhoig[101,10] 8.1712414612411521e-14
rhoig[102,10] 1.0000000000000027e+00
rhoig[203,10] 0
rhoig[303,10] 1
Lig[101,10,0] 4.9612684555038129e+01
Lig[101,10,1] 5.1224880238462887e+01
Lig[102,10,0] 5.2702568831453490e+01
Lig[102,10,1] 5.8664467196130111e+01
Lig[203,10,0] 5.6721116867967716e+01
Lig[203,10,1] 4.8418990737458962e+01
Lig[303,10,0] 5.9662566576756035e+01
Lig[303,10,1] 6.0842090561065469e+01
landaig[101,10] 9.9999999999991118e-01
landaig[102,10] 2.6645352591003757e-15
landaig[203,10] 1
landaig[303,10] 0
minig[101,10] 9.9999999999991285e-01
minig[102,10] 0
minig[203,10] 1
minig[303,10] 0
maxig[101,10] 8.7152507433074788e-14
maxig[102,10] 1
maxig[203,10] 0
maxig[303,10] 1
entryig[101,10] 9.9999999999991285e-01
entryig[102,10] 0
entryig[203,10] 1
entryig[303,10] 0
muig[101,10] 1
muig[102,10] 1
muig[203,10] 1
muig[303,10] 1
pig[101,10] 1
pig[102,10] 1
pig[203,10] 1
pig[303,10] 1
alphaig[101,10] 1
alphaig[102,10] 1
alphaig[203,10] 1
alphaig[303,10] 1
